c preprocessed version of 1bkr_graph, 107 vertices, 1340 edges
p td 107 1340
105 106
104 106
104 105
103 106
103 105
103 104
102 106
102 105
102 104
102 103
101 106
101 105
101 104
101 103
101 102
100 105
100 104
100 103
100 102
100 101
99 104
99 103
99 102
99 101
99 100
98 103
98 102
98 101
98 100
98 99
97 105
97 104
97 102
97 101
97 100
97 99
97 98
96 104
96 103
96 100
96 99
96 98
96 97
95 103
95 102
95 99
95 98
95 97
95 96
94 101
94 98
94 97
94 96
94 95
93 101
93 100
93 99
93 97
93 96
93 95
93 94
92 100
92 99
92 97
92 96
92 95
92 94
92 93
91 98
91 96
91 95
91 94
91 93
91 92
90 97
90 94
90 93
90 92
90 91
89 97
89 96
89 94
89 93
89 92
89 91
89 90
88 95
88 94
88 93
88 92
88 91
88 90
88 89
87 96
87 95
87 93
87 92
87 91
87 89
87 88
86 92
86 89
86 88
86 87
85 87
85 86
84 92
84 91
84 88
84 87
84 86
84 85
83 92
83 87
83 85
83 84
82 99
82 96
82 95
82 94
82 93
82 92
82 91
82 90
82 89
82 88
82 87
82 84
82 83
81 95
81 92
81 91
81 90
81 89
81 88
81 87
81 86
81 84
81 83
81 82
80 91
80 87
80 84
80 83
80 82
80 81
79 95
79 92
79 83
79 82
79 81
79 80
78 95
78 92
78 91
78 87
78 84
78 83
78 82
78 81
78 80
78 79
77 99
77 98
77 96
77 95
77 94
77 93
77 92
77 91
77 90
77 88
77 87
77 84
77 83
77 82
77 81
77 80
77 79
77 78
76 101
76 99
76 98
76 97
76 96
76 95
76 94
76 93
76 92
76 91
76 90
76 88
76 82
76 81
76 78
76 77
75 98
75 95
75 91
75 82
75 81
75 80
75 79
75 78
75 77
75 76
74 102
74 101
74 99
74 98
74 95
74 94
74 78
74 77
74 76
74 75
73 106
73 105
73 103
73 102
73 101
73 100
73 99
73 98
73 97
73 96
73 95
73 94
73 92
73 82
73 77
73 76
73 75
73 74
72 106
72 102
72 98
72 74
72 73
71 106
71 103
71 102
71 99
71 98
71 95
71 73
71 72
70 106
70 103
70 102
70 99
70 73
70 72
70 71
69 75
69 73
69 72
69 71
69 70
68 99
68 95
68 79
68 78
68 77
68 75
68 74
68 73
68 72
68 71
68 70
68 69
67 103
67 102
67 101
67 99
67 98
67 96
67 95
67 92
67 91
67 82
67 77
67 76
67 75
67 74
67 73
67 72
67 71
67 70
67 69
67 68
66 103
66 102
66 99
66 73
66 71
66 70
66 69
66 68
66 67
65 79
65 78
65 75
65 70
65 69
65 68
65 67
65 66
64 102
64 99
64 98
64 96
64 95
64 92
64 91
64 87
64 83
64 82
64 81
64 80
64 79
64 78
64 77
64 76
64 75
64 74
64 73
64 71
64 69
64 68
64 67
64 66
64 65
63 103
63 102
63 99
63 98
63 96
63 95
63 92
63 91
63 87
63 82
63 79
63 77
63 76
63 75
63 73
63 71
63 68
63 67
63 66
63 65
63 64
62 79
62 70
62 69
62 67
62 66
62 65
62 64
62 63
61 83
61 82
61 80
61 79
61 78
61 77
61 75
61 69
61 68
61 66
61 65
61 64
61 63
61 62
60 99
60 96
60 95
60 92
60 91
60 87
60 83
60 82
60 81
60 80
60 79
60 78
60 77
60 76
60 75
60 73
60 67
60 65
60 64
60 63
60 62
60 61
59 83
59 82
59 79
59 66
59 64
59 63
59 62
59 61
59 60
58 83
58 79
58 66
58 65
58 63
58 62
58 61
58 60
58 59
57 84
57 83
57 82
57 80
57 79
57 78
57 75
57 65
57 64
57 62
57 61
57 60
57 59
57 58
56 85
56 84
56 83
56 82
56 80
56 79
56 61
56 60
56 59
56 58
56 57
55 83
55 62
55 61
55 60
55 59
55 58
55 57
55 56
54 83
54 59
54 58
54 56
54 55
53 83
53 59
53 56
53 55
53 54
52 62
52 59
52 58
52 55
52 54
52 53
51 67
51 66
51 63
51 62
51 61
51 60
51 59
51 58
51 56
51 55
51 54
51 53
51 52
50 62
50 59
50 58
50 55
50 52
50 51
49 52
49 51
49 50
48 66
48 62
48 59
48 53
48 52
48 51
48 50
48 49
47 66
47 62
47 59
47 51
47 50
47 49
47 48
46 103
46 99
46 73
46 71
46 70
46 69
46 67
46 66
46 65
46 63
46 62
46 61
46 59
46 58
46 55
46 51
46 50
46 49
46 48
46 47
45 103
45 102
45 99
45 73
45 71
45 70
45 69
45 67
45 66
45 65
45 63
45 62
45 51
45 48
45 47
45 46
44 103
44 71
44 70
44 69
44 66
44 47
44 46
44 45
43 66
43 49
43 48
43 47
43 46
43 45
43 44
42 106
42 103
42 102
42 99
42 73
42 71
42 70
42 69
42 67
42 66
42 63
42 46
42 45
42 44
42 43
41 106
41 104
41 103
41 102
41 100
41 99
41 73
41 71
41 70
41 67
41 66
41 63
41 46
41 45
41 44
41 43
41 42
40 104
40 103
40 99
40 48
40 46
40 43
40 42
40 41
39 103
39 67
39 66
39 63
39 62
39 59
39 51
39 50
39 49
39 48
39 47
39 46
39 45
39 44
39 43
39 42
39 41
39 40
38 103
38 102
38 99
38 98
38 96
38 95
38 92
38 77
38 73
38 71
38 70
38 69
38 68
38 67
38 66
38 65
38 64
38 63
38 62
38 60
38 59
38 51
38 48
38 46
38 45
38 44
38 43
38 42
38 41
38 40
38 39
37 104
37 103
37 102
37 100
37 99
37 98
37 97
37 96
37 95
37 93
37 92
37 82
37 77
37 73
37 71
37 67
37 66
37 64
37 63
37 60
37 48
37 46
37 45
37 42
37 41
37 40
37 39
37 38
36 103
36 99
36 96
36 66
36 63
36 62
36 59
36 53
36 51
36 49
36 48
36 46
36 43
36 40
36 39
36 38
36 37
35 99
35 71
35 67
35 66
35 65
35 64
35 63
35 62
35 61
35 60
35 59
35 58
35 55
35 53
35 52
35 51
35 50
35 49
35 48
35 47
35 46
35 45
35 43
35 42
35 39
35 38
35 37
35 36
34 103
34 102
34 100
34 99
34 98
34 96
34 95
34 93
34 92
34 91
34 87
34 83
34 82
34 79
34 77
34 76
34 75
34 73
34 71
34 68
34 67
34 66
34 64
34 63
34 62
34 61
34 60
34 59
34 51
34 48
34 46
34 45
34 41
34 38
34 37
34 36
34 35
33 103
33 100
33 99
33 96
33 95
33 93
33 92
33 87
33 82
33 77
33 67
33 64
33 63
33 60
33 59
33 53
33 51
33 48
33 38
33 37
33 36
33 35
33 34
32 63
32 62
32 59
32 58
32 56
32 55
32 54
32 53
32 52
32 51
32 50
32 49
32 48
32 46
32 39
32 37
32 36
32 35
32 34
32 33
31 96
31 95
31 92
31 87
31 83
31 82
31 79
31 77
31 67
31 64
31 63
31 62
31 61
31 60
31 59
31 58
31 57
31 56
31 55
31 54
31 53
31 52
31 51
31 48
31 46
31 39
31 36
31 35
31 34
31 33
31 32
30 85
30 84
30 83
30 82
30 60
30 59
30 57
30 56
30 55
30 54
30 53
30 52
30 51
30 48
30 36
30 35
30 34
30 33
30 32
30 31
29 92
29 87
29 86
29 85
29 84
29 83
29 82
29 77
29 60
29 56
29 53
29 34
29 33
29 32
29 31
29 30
28 100
28 99
28 96
28 95
28 93
28 92
28 91
28 89
28 88
28 87
28 82
28 81
28 77
28 76
28 73
28 67
28 64
28 63
28 60
28 53
28 38
28 37
28 36
28 34
28 33
28 32
28 31
28 30
28 29
27 96
27 93
27 92
27 89
27 87
27 82
27 53
27 37
27 36
27 34
27 33
27 30
27 29
27 28
26 92
26 89
26 87
26 86
26 85
26 83
26 82
26 56
26 53
26 33
26 30
26 29
26 28
26 27
25 96
25 93
25 92
25 90
25 89
25 88
25 87
25 86
25 85
25 82
25 33
25 29
25 28
25 27
25 26
24 100
24 99
24 97
24 96
24 95
24 94
24 93
24 92
24 90
24 89
24 88
24 87
24 82
24 77
24 37
24 34
24 33
24 28
24 27
24 26
24 25
23 96
23 93
23 92
23 89
23 87
23 86
23 85
23 33
23 30
23 29
23 28
23 27
23 26
23 25
23 24
22 89
22 86
22 33
22 30
22 29
22 28
22 27
22 26
22 25
22 24
22 23
21 103
21 100
21 99
21 96
21 95
21 93
21 92
21 89
21 87
21 82
21 63
21 60
21 51
21 48
21 37
21 36
21 34
21 33
21 32
21 30
21 28
21 27
21 26
21 25
21 24
21 23
21 22
20 53
20 36
20 33
20 32
20 30
20 27
20 26
20 23
20 22
20 21
19 103
19 99
19 96
19 92
19 62
19 59
19 53
19 51
19 48
19 46
19 43
19 40
19 39
19 37
19 36
19 35
19 34
19 33
19 32
19 31
19 30
19 28
19 27
19 24
19 21
19 20
18 59
18 54
18 53
18 52
18 51
18 49
18 48
18 36
18 35
18 32
18 30
18 20
18 19
17 53
17 52
17 51
17 49
17 48
17 39
17 36
17 35
17 32
17 30
17 20
17 19
17 18
16 103
16 62
16 59
16 53
16 51
16 49
16 48
16 46
16 43
16 40
16 39
16 37
16 36
16 35
16 33
16 32
16 31
16 30
16 28
16 21
16 20
16 19
16 18
16 17
15 48
15 40
15 39
15 36
15 19
15 17
15 16
14 40
14 36
14 33
14 22
14 21
14 19
14 16
14 15
13 103
13 100
13 99
13 96
13 92
13 67
13 63
13 51
13 48
13 41
13 40
13 39
13 38
13 37
13 36
13 35
13 34
13 33
13 32
13 30
13 28
13 27
13 24
13 22
13 21
13 20
13 19
13 17
13 16
13 15
13 14
12 104
12 103
12 102
12 100
12 99
12 96
12 73
12 71
12 67
12 63
12 48
12 43
12 42
12 41
12 40
12 39
12 38
12 37
12 36
12 34
12 33
12 28
12 24
12 21
12 19
12 16
12 14
12 13
11 104
11 103
11 100
11 40
11 37
11 15
11 14
11 13
11 12
10 37
10 36
10 33
10 28
10 24
10 22
10 21
10 20
10 19
10 16
10 14
10 13
10 12
10 11
9 105
9 104
9 103
9 101
9 100
9 99
9 97
9 96
9 93
9 41
9 40
9 37
9 34
9 33
9 28
9 24
9 21
9 13
9 12
9 11
9 10
8 100
8 24
8 21
8 14
8 12
8 11
8 10
8 9
7 100
7 97
7 96
7 93
7 92
7 89
7 33
7 28
7 27
7 25
7 24
7 23
7 22
7 21
7 19
7 13
7 11
7 10
7 9
7 8
6 104
6 103
6 101
6 100
6 99
6 97
6 96
6 95
6 94
6 93
6 92
6 90
6 89
6 37
6 34
6 33
6 28
6 27
6 24
6 21
6 13
6 12
6 9
6 8
6 7
5 104
5 101
5 100
5 97
5 96
5 93
5 12
5 11
5 9
5 8
5 7
5 6
4 93
4 89
4 24
4 22
4 21
4 11
4 10
4 9
4 8
4 7
4 6
4 5
3 100
3 97
3 96
3 94
3 93
3 92
3 90
3 89
3 28
3 25
3 24
3 23
3 21
3 8
3 7
3 6
3 5
3 4
2 104
2 101
2 100
2 97
2 96
2 94
2 93
2 90
2 89
2 24
2 9
2 7
2 6
2 5
2 4
2 3
1 9
1 8
1 6
1 5
1 4
1 3
1 2
0 93
0 89
0 24
0 8
0 7
0 5
0 4
0 3
0 2
0 1
